100	5
25	200
10
30
10
10
10
20
20
20
10
10
10
20
30
10
40
40
20
20
10
10
20
20
10
10
40
10
10
20
10
10
20
30
40
20
10
10
20
30
20
10
10
20
10
10
10
30
10
10
10
10
10
10
20
40
10
30
40
30
10
20
10
20
50
10
10
10
10
10
10
30
20
10
10
50
20
10
10
20
10
10
30
20
10
20
30
10
20
30
10
10
10
20
40
10
30
10
30
20
10
20
40	50	0	1236	0	0
45	68	850	1030	90	1
45	70	758	938	90	3
42	66	16	196	90	3
42	68	665	845	90	1
42	65	15	195	90	2
40	69	572	752	90	1
40	66	108	288	90	1
38	68	200	380	90	3
38	70	480	660	90	3
35	66	294	474	90	1
35	69	387	567	90	2
25	85	597	777	90	1
22	75	30	210	90	1
22	85	504	684	90	2
20	80	317	497	90	3
20	85	412	592	90	1
18	75	34	214	90	3
15	75	127	307	90	2
15	80	222	402	90	2
30	50	10	190	90	1
30	52	850	1030	90	2
28	52	758	938	90	1
28	55	665	845	90	1
25	50	15	195	90	1
25	52	107	287	90	1
25	55	572	752	90	1
23	52	199	379	90	3
23	55	480	660	90	3
20	50	292	472	90	1
20	55	387	567	90	2
10	35	129	309	90	1
10	40	31	211	90	2
8	40	33	213	90	2
8	45	694	874	90	1
5	35	224	404	90	1
5	45	601	781	90	3
2	40	319	499	90	2
0	40	411	591	90	2
0	45	506	686	90	2
35	30	203	383	90	1
35	32	111	291	90	3
33	32	19	199	90	3
33	35	16	196	90	1
32	30	296	476	90	3
30	30	481	661	90	1
30	32	389	569	90	3
30	35	947	1127	90	1
28	30	573	753	90	1
28	35	944	1124	90	1
26	32	758	938	90	2
25	30	666	846	90	3
25	35	851	1031	90	3
44	5	227	407	90	2
42	10	132	312	90	2
42	15	37	217	90	2
40	5	321	501	90	1
40	15	35	215	90	3
38	5	413	593	90	2
38	15	606	786	90	3
35	5	506	686	90	1
50	30	481	661	90	1
50	35	200	380	90	2
50	40	105	285	90	1
48	30	573	753	90	1
48	40	13	193	90	2
47	35	761	941	90	1
47	40	12	192	90	1
45	30	666	846	90	1
45	35	853	1033	90	1
95	30	332	512	90	3
95	35	237	417	90	3
53	30	388	568	90	3
92	30	425	605	90	3
53	35	293	473	90	2
45	65	943	1123	90	3
90	35	142	322	90	2
88	30	519	699	90	3
88	35	50	230	90	3
87	30	610	790	90	2
85	25	705	885	90	1
85	35	47	227	90	2
75	55	305	485	90	2
72	55	212	392	90	2
70	58	401	581	90	2
68	60	494	674	90	1
66	55	116	296	90	1
65	55	25	205	90	3
65	60	587	767	90	2
63	58	680	860	90	3
60	55	20	200	90	1
60	60	773	953	90	3
67	85	315	495	90	3
65	85	407	587	90	2
65	82	221	401	90	3
62	80	128	308	90	2
60	80	36	216	90	3
60	85	502	682	90	3
58	75	30	210	90	3
55	80	692	872	90	3
55	85	597	777	90	2
1	82	0	1236	45	4
62	16	0	1236	45	4
84	73	0	1236	45	4
53	7	0	1236	45	4
3	10	0	1236	45	4
0	0	0	0	0	
0	0	1	0	0	
0	0	1	0	0	
0	0	0	0	0	
0	0	1	0	0	
0	0	0	0	0	
0	0	0	0	0	
1	0	0	0	0	
1	0	0	0	0	
0	0	0	0	0	
1	0	0	0	0	
0	0	0	0	0	
0	0	0	0	0	
1	0	0	0	0	
1	0	0	0	0	
0	0	0	0	0	
1	0	0	0	0	
1	0	0	0	0	
1	0	0	0	0	
0	0	0	0	0	
1	0	0	0	0	
0	0	0	0	0	
0	0	0	0	0	
0	0	0	0	0	
0	0	0	0	0	
0	0	0	0	0	
1	0	0	0	0	
1	0	0	0	0	
0	0	0	0	0	
1	0	0	0	0	
0	0	0	0	0	
0	0	0	0	1	
0	0	0	0	1	
0	0	0	0	0	
0	0	0	0	0	
0	0	0	0	1	
0	0	0	0	1	
0	0	0	0	1	
0	0	0	0	1	
0	0	0	0	0	
0	0	0	1	0	
0	0	0	1	0	
0	0	0	0	0	
0	0	0	1	0	
0	0	0	0	0	
0	0	0	1	0	
0	0	0	0	0	
0	0	0	0	0	
0	0	0	0	0	
0	0	0	0	1	
0	0	0	0	1	
0	0	0	0	1	
0	0	0	1	0	
0	0	0	1	0	
0	0	0	1	0	
0	0	0	0	0	
0	0	0	1	0	
0	0	0	1	0	
0	0	0	1	0	
0	0	0	0	0	
0	0	0	0	0	
0	1	0	0	0	
0	0	0	0	0	
0	0	0	0	0	
0	1	0	0	0	
0	0	0	0	0	
0	0	0	0	0	
0	0	0	0	0	
0	0	0	0	0	
0	1	0	0	0	
0	1	0	0	0	
0	1	0	0	0	
0	1	0	0	0	
0	1	0	0	0	
0	0	1	0	0	
0	1	0	0	0	
0	1	0	0	0	
0	1	0	0	0	
0	1	0	0	0	
0	0	0	0	0	
0	1	0	0	0	
0	0	1	0	0	
0	0	1	0	0	
0	0	1	0	0	
0	0	0	0	0	
0	0	0	0	0	
0	0	1	0	0	
0	0	1	0	0	
0	0	1	0	0	
0	0	0	0	0	
0	0	1	0	0	
0	0	1	0	0	
0	0	1	0	0	
0	0	1	0	0	
0	0	1	0	0	
0	0	1	0	0	
0	0	1	0	0	
0	0	1	0	0	
0	0	1	0	0	
0	0	1	0	0	
